(set-logic QF_SLIA)
(declare-const result String)
(declare-const attack String)
(declare-const prefix RegLan)
(declare-const infix RegLan)
(declare-const postfix RegLan)
(declare-const postfixs String)

(assert (str.in_re attack (re.++ prefix ((_ re.loop 10000 10000) infix) postfix)))
(assert (= prefix 
     (re.++  (re.++ (re.+ re.allchar )  (str.to_re "\u{5c}\u{40}")) (re.+ re.allchar ))
))
(assert (= infix 
         (re.++ (re.+  (re.union  (str.to_re "\u{0a}")  (str.to_re "\u{0d}")) ) (re.++  (str.to_re "\u{26}") (re.++  (re.++ (re.+  (re.union  (str.to_re "\u{0a}")  (str.to_re "\u{0d}")) ) (re.++  (str.to_re "\u{5c}\u{2e}") (re.+  (re.union  (str.to_re "\u{0a}")  (str.to_re "\u{0d}")) ))) (re.++  (str.to_re "\u{26}") (re.++ (re.+  (re.union  (str.to_re "\u{0a}")  (str.to_re "\u{0d}")) ) (re.++  (str.to_re "\u{26}") (re.+ re.allchar )))))))
))
(assert (= postfix 
         (str.to_re "\u{0a}")
))
(assert (str.in_re postfixs postfix))
(assert (>= (str.len postfixs) 1))
(assert (= result (str.++ attack postfixs)))
(check-sat)
(get-model)